RT is False
Default write of storage_offers_DA.csv just to have a file (but constraint should be inactive)
Reading model...
...model read.
creating competitive generators file...
...competitive generators recorded.
Loading data...
.. day-ahead data read.
Compiling instance...
...instance created.
Creating Offer Mitigation (model will solve as dispatch if TRUE)...
NOTE: storage offers will not be mitigated
...storage offer mitigation file created
Converting model to MPEC...
...converted
NOTE: initial MIP solve with only storage competitive to get feasible solution
Solving...

Welcome to IBM(R) ILOG(R) CPLEX(R) Interactive Optimizer 12.10.0.0
  with Simplex, Mixed Integer & Barrier Optimizers
5725-A06 5725-A29 5724-Y48 5724-Y49 5724-Y54 5724-Y55 5655-Y21
Copyright IBM Corp. 1988, 2019.  All Rights Reserved.

Type 'help' for a list of available commands.
Type 'help' followed by a command name for more
information on commands.

CPLEX> Logfile 'cplex.log' closed.
Logfile 'C:\Users\wenmi\Desktop\competitiveMPEC\logs\tmp7p1jsflo.cplex.log' open.
CPLEX> New value for parallel optimization mode: -1
CPLEX> New value for mixed integer optimality gap tolerance: 0.01
CPLEX> New value for integrality tolerance: 1e-09
CPLEX> New value for feasibility tolerance: 0.01
CPLEX> New value for deterministic time limit in ticks: 75000
CPLEX> Problem 'C:\Users\wenmi\Desktop\competitiveMPEC\logs\tmpofhwuru5.pyomo.lp' read.
Read time = 0.14 sec. (14.51 ticks)
CPLEX> Problem name         : C:\Users\wenmi\Desktop\competitiveMPEC\logs\tmpofhwuru5.pyomo.lp
Objective sense      : Maximize
Variables            :   53805  [Nneg: 1,  Box: 22000,  Free: 4464,
                                 Binary: 27340]
Objective nonzeros   :    8979
Linear constraints   :  123205  [Less: 41346,  Greater: 59096,  Equal: 22763]
  Nonzeros           :  291800
  RHS nonzeros       :   67490

Variables            : Min LB: -5000.000        Max UB: 1000000.       
Objective nonzeros   : Min   : 0.1000000        Max   : 822.3000       
Linear constraints   :
  Nonzeros           : Min   : 0.1000000        Max   : 1000000.       
  RHS nonzeros       : Min   : 0.1000000        Max   : 1000000.       
CPLEX> Version identifier: 12.10.0.0 | 2019-11-26 | 843d4de2ae
CPXPARAM_Parallel                                -1
CPXPARAM_Simplex_Tolerances_Feasibility          0.01
CPXPARAM_DetTimeLimit                            75000
CPXPARAM_MIP_Tolerances_MIPGap                   0.01
CPXPARAM_MIP_Tolerances_Integrality              1.0000000000000001e-09
Tried aggregator 3 times.
MIP Presolve eliminated 88595 rows and 18895 columns.
MIP Presolve added 3405 rows and 0 columns.
MIP Presolve modified 24889 coefficients.
Aggregator did 13028 substitutions.
Reduced MIP has 24987 rows, 21326 columns, and 71282 nonzeros.
Reduced MIP has 8425 binaries, 0 generals, 0 SOSs, and 0 indicators.
Presolve time = 0.16 sec. (171.67 ticks)
Probing fixed 392 vars, tightened 2814 bounds.
Probing time = 0.75 sec. (879.57 ticks)
Tried aggregator 2 times.
Detecting symmetries...
MIP Presolve eliminated 896 rows and 795 columns.
MIP Presolve modified 2191 coefficients.
Aggregator did 32 substitutions.
Reduced MIP has 24059 rows, 20499 columns, and 68584 nonzeros.
Reduced MIP has 8029 binaries, 0 generals, 0 SOSs, and 0 indicators.
Presolve time = 0.06 sec. (72.90 ticks)
Probing fixed 0 vars, tightened 1 bounds.
Probing time = 0.02 sec. (20.73 ticks)
Clique table members: 6334.
MIP emphasis: balance optimality and feasibility.
MIP search method: dynamic search.
Parallel mode: opportunistic, using up to 16 threads.
Root relaxation solution time = 0.23 sec. (233.77 ticks)

        Nodes                                         Cuts/
   Node  Left     Objective  IInf  Best Integer    Best Bound    ItCnt     Gap

      0     0     5820.0278  1575                   5820.0278     5972         
      0     0     5817.2588   550                   Cuts: 562     6224         
      0     0     5816.9854   474                   Cuts: 126     6328         
      0     0     5800.3932   444                   Cuts: 115     6400         
      0     0     5794.6176   412                    Cuts: 81     6445         
      0     0     5794.6176   390                    Cuts: 69     6490         
      0     0     5794.6176   370                    Cuts: 64     6520         
      0     0     5794.6176   355                    Cuts: 59     6551         
      0     0     5794.6176   338                    Cuts: 50     6580         
      0     0     5794.6176   334                    Cuts: 23     6586         
      0     0     5794.6176   334                    Cuts: 21     6592         
      0     3     5566.6777   329                   5794.6176     6603         
Elapsed time = 7.25 sec. (6215.34 ticks, tree = 0.02 MB, solutions = 0)
    228    71     5566.6777   310                   5754.3118     7638         
    563   291     5526.2386   302                   5754.3118    10145         
    980   427     3522.8734   265                   5754.3118    11135         
   1414   722     5566.6777   262                   5754.3118    12329         
   1788  1142     5526.2386   220                   5754.3118    13375         
   2257  1677     2215.8515   217                   5754.3118    15077         
   2760  1782     5526.2386   224                   5754.3118    15257         
   3082  2146     5513.7587   174                   5754.3118    15534         
   3396  2477  -452792.2324   183                   5754.3118    17497         
*  4322+ 1949                         5511.1969     5754.3118             4.41%
Elapsed time = 17.86 sec. (8918.29 ticks, tree = 14.97 MB, solutions = 1)
*  5064  3785      integral     0     5551.6361     5752.1820    23648    3.61%
   6141  1439     5680.8051   311     5551.6361     5752.1820    24444    3.61%

Performing restart 1

Repeating presolve.
Tried aggregator 3 times.
MIP Presolve eliminated 6993 rows and 4869 columns.
MIP Presolve modified 9908 coefficients.
Aggregator did 198 substitutions.
Reduced MIP has 16868 rows, 15432 columns, and 48474 nonzeros.
Reduced MIP has 5623 binaries, 0 generals, 0 SOSs, and 0 indicators.
Presolve time = 0.06 sec. (69.50 ticks)
Tried aggregator 4 times.
MIP Presolve eliminated 6381 rows and 4890 columns.
MIP Presolve modified 8094 coefficients.
Aggregator did 81 substitutions.
Reduced MIP has 10404 rows, 9535 columns, and 29589 nonzeros.
Reduced MIP has 3314 binaries, 0 generals, 0 SOSs, and 0 indicators.
Presolve time = 0.05 sec. (51.64 ticks)
Tried aggregator 2 times.
MIP Presolve eliminated 76 rows and 54 columns.
MIP Presolve modified 2259 coefficients.
Aggregator did 6 substitutions.
Reduced MIP has 10318 rows, 9463 columns, and 29323 nonzeros.
Reduced MIP has 3291 binaries, 0 generals, 0 SOSs, and 0 indicators.
Presolve time = 0.03 sec. (32.03 ticks)
Represolve time = 0.55 sec. (514.65 ticks)
   7016     0     5768.9658    10     5551.6361     Cuts: 142    27984    2.09%
   7016     0     5719.3811     9     5551.6361      Cuts: 29    28002    1.60%
   7016     0     5713.6150    13     5551.6361      Cuts: 19    28018    1.60%
   7016     0     5710.4426     7     5551.6361      Cuts: 40    28036    1.60%
   7016     0     5709.5523    11     5551.6361      Cuts: 47    28046    1.60%
   7016     0     5708.6794     7     5551.6361      Cuts: 24    28049    1.60%
   7016     0     5708.6794     7     5551.6361      Cuts: 26    28052    1.60%
*  7016     5      integral     0     5640.3660     5640.3660    28074    0.00%
   7016     5     5640.3660     0     5640.3660     5640.3660    28074    0.00%

Implied bound cuts applied:  2
Flow cuts applied:  4
Mixed integer rounding cuts applied:  2
Gomory fractional cuts applied:  2

Root node processing (before b&c):
  Real time             =    7.00 sec. (6201.21 ticks)
Parallel b&c, 16 threads:
  Real time             =   16.86 sec. (6240.25 ticks)
  Sync time (average)   =    0.17 sec.
  Wait time (average)   =    0.02 sec.
                          ------------
Total (root+branch&cut) =   23.86 sec. (12441.46 ticks)

Solution pool: 11 solutions saved.

MIP - Integer optimal solution:  Objective =  5.6403659916e+03
Solution time =   23.86 sec.  Iterations = 28084  Nodes = 7024
Deterministic time = 12441.61 ticks  (521.46 ticks/sec)

CPLEX> Incumbent solution written to file 'C:\Users\wenmi\Desktop\competitiveMPEC\logs\tmpnx8djv_z.cplex.sol'.
CPLEX> NOTE: no warmstart specified for MIP iteration, default behavior is true
NOTE: resolving with all competitive generators using storage-only solution to warmstart
Solving...

Welcome to IBM(R) ILOG(R) CPLEX(R) Interactive Optimizer 12.10.0.0
  with Simplex, Mixed Integer & Barrier Optimizers
5725-A06 5725-A29 5724-Y48 5724-Y49 5724-Y54 5724-Y55 5655-Y21
Copyright IBM Corp. 1988, 2019.  All Rights Reserved.

Type 'help' for a list of available commands.
Type 'help' followed by a command name for more
information on commands.

CPLEX> Logfile 'cplex.log' closed.
Logfile 'C:\Users\wenmi\Desktop\competitiveMPEC\logs\tmpsf6p6nji.cplex.log' open.
CPLEX> New value for parallel optimization mode: -1
CPLEX> New value for mixed integer optimality gap tolerance: 0.01
CPLEX> New value for integrality tolerance: 1e-09
CPLEX> New value for feasibility tolerance: 0.01
CPLEX> New value for deterministic time limit in ticks: 75000
CPLEX> Problem 'C:\Users\wenmi\Desktop\competitiveMPEC\logs\tmpm21qzcuo.pyomo.lp' read.
Read time = 0.14 sec. (14.53 ticks)
CPLEX> MIP start file 'C:\Users\wenmi\Desktop\competitiveMPEC\logs\tmpst6m2np3.cplex.mst' read.
CPLEX> Problem name         : C:\Users\wenmi\Desktop\competitiveMPEC\logs\tmpm21qzcuo.pyomo.lp
Objective sense      : Maximize
Variables            :   54525  [Nneg: 1,  Box: 22720,  Free: 4464,
                                 Binary: 27340]
Objective nonzeros   :    9675
Linear constraints   :  123205  [Less: 41346,  Greater: 59096,  Equal: 22763]
  Nonzeros           :  291800
  RHS nonzeros       :   67490

Variables            : Min LB: -5000.000        Max UB: 1000000.       
Objective nonzeros   : Min   : 0.1000000        Max   : 799.0000       
Linear constraints   :
  Nonzeros           : Min   : 0.1000000        Max   : 1000000.       
  RHS nonzeros       : Min   : 0.1000000        Max   : 1000000.       
CPLEX> Version identifier: 12.10.0.0 | 2019-11-26 | 843d4de2ae
CPXPARAM_Parallel                                -1
CPXPARAM_Simplex_Tolerances_Feasibility          0.01
CPXPARAM_DetTimeLimit                            75000
CPXPARAM_MIP_Tolerances_MIPGap                   0.01
CPXPARAM_MIP_Tolerances_Integrality              1.0000000000000001e-09
Warning:  No solution found from 1 MIP starts.
Retaining values of one MIP start for possible repair.
Tried aggregator 3 times.
MIP Presolve eliminated 88595 rows and 19615 columns.
MIP Presolve added 3405 rows and 0 columns.
MIP Presolve modified 24889 coefficients.
Aggregator did 13028 substitutions.
Reduced MIP has 24987 rows, 21326 columns, and 71282 nonzeros.
Reduced MIP has 8425 binaries, 0 generals, 0 SOSs, and 0 indicators.
Presolve time = 0.16 sec. (172.03 ticks)
Probing fixed 392 vars, tightened 2814 bounds.
Probing time = 0.72 sec. (879.57 ticks)
Tried aggregator 2 times.
Detecting symmetries...
MIP Presolve eliminated 896 rows and 795 columns.
MIP Presolve modified 2191 coefficients.
Aggregator did 32 substitutions.
Reduced MIP has 24059 rows, 20499 columns, and 68584 nonzeros.
Reduced MIP has 8029 binaries, 0 generals, 0 SOSs, and 0 indicators.
Presolve time = 0.06 sec. (72.90 ticks)
Probing fixed 0 vars, tightened 1 bounds.
Probing time = 0.02 sec. (20.73 ticks)
Clique table members: 6334.
MIP emphasis: balance optimality and feasibility.
MIP search method: dynamic search.
Parallel mode: opportunistic, using up to 16 threads.
Root relaxation solution time = 0.27 sec. (258.54 ticks)

        Nodes                                         Cuts/
   Node  Left     Objective  IInf  Best Integer    Best Bound    ItCnt     Gap

      0     0    82846.0614  1712                  82846.0614     6059         
      0     0    81160.6571   624                   Cuts: 515     6332         
      0     0    81009.2190   569                   Cuts: 186     6434         
      0     0    80886.2572   543                    Cuts: 99     6488         
      0     0    80870.4035   508                    Cuts: 83     6532         
      0     0    80869.6034   488                    Cuts: 75     6575         
      0     0    80868.3410   464                    Cuts: 47     6602         
      0     0    80868.3410   451                    Cuts: 44     6620         
      0     0    80868.3410   444                    Cuts: 19     6627         
      0     0    80868.3410   443                    Cuts: 15     6629         
Repair heuristic found nothing.
      0    13    65754.3400   373                  80602.6233     6716         
Elapsed time = 7.14 sec. (5892.03 ticks, tree = 0.02 MB, solutions = 0)
    211    58    infeasible                        77019.8608     7612         
    535   224    infeasible                        77019.8608     9483         
    732   468    56869.4159   359                  77019.8608    13370         
   1076   543    40248.1552   351                  77019.8608    13984         
   1460   856    60406.8943   335                  77019.8608    16235         
   1914  1134    39597.4065   320                  77019.8608    17935         
   2418  1539    39597.4065   317                  77019.8608    18537         
   2946  2019    43191.0007   314                  77019.8608    18760         
   3544  2318    56323.4925   301                  77019.8608    18831         
*  5696+ 1957                        41901.7595    77019.8608            83.81%
Elapsed time = 19.24 sec. (8856.93 ticks, tree = 14.05 MB, solutions = 3)
*  6851  1671      integral     0    43794.6437    77019.8608    21325   75.87%

Performing restart 1

Repeating presolve.
Tried aggregator 3 times.
MIP Presolve eliminated 790 rows and 696 columns.
MIP Presolve modified 7709 coefficients.
Aggregator did 172 substitutions.
Reduced MIP has 23097 rows, 19631 columns, and 63218 nonzeros.
Reduced MIP has 7681 binaries, 0 generals, 0 SOSs, and 0 indicators.
Presolve time = 0.06 sec. (63.16 ticks)
Tried aggregator 2 times.
MIP Presolve eliminated 395 rows and 324 columns.
MIP Presolve modified 397 coefficients.
Aggregator did 17 substitutions.
Reduced MIP has 22685 rows, 19290 columns, and 62075 nonzeros.
Reduced MIP has 7519 binaries, 0 generals, 0 SOSs, and 0 indicators.
Presolve time = 0.03 sec. (42.66 ticks)
Tried aggregator 2 times.
MIP Presolve eliminated 42 rows and 42 columns.
MIP Presolve modified 273 coefficients.
Aggregator did 14 substitutions.
Reduced MIP has 22629 rows, 19234 columns, and 61911 nonzeros.
Reduced MIP has 7498 binaries, 0 generals, 0 SOSs, and 0 indicators.
Presolve time = 0.06 sec. (68.23 ticks)
Represolve time = 1.30 sec. (1169.33 ticks)
   6889     0    63194.3894   427    43794.6437     Cuts: 689    31399   22.36%
   6889     0    63045.7198   135    43794.6437    Cuts: 2768    31963   18.77%
   6889     0    63042.3546   110    43794.6437     Cuts: 440    32080   18.77%

GUB cover cuts applied:  1
Clique cuts applied:  3
Cover cuts applied:  16
Implied bound cuts applied:  23
Flow cuts applied:  595
Mixed integer rounding cuts applied:  127
Gomory fractional cuts applied:  51

Root node processing (before b&c):
  Real time             =    6.69 sec. (5857.16 ticks)
Parallel b&c, 16 threads:
  Real time             =   16.58 sec. (6961.53 ticks)
  Sync time (average)   =    0.18 sec.
  Wait time (average)   =    0.00 sec.
                          ------------
Total (root+branch&cut) =   23.27 sec. (12818.69 ticks)

Solution pool: 5 solutions saved.

MIP - Integer optimal, tolerance (0.01/1e-06):  Objective =  4.3794643679e+04
Current MIP best bound =  4.4224581350e+04 (gap = 429.938, 0.98%)
Solution time =   23.27 sec.  Iterations = 32108  Nodes = 6889 (1)
Deterministic time = 12818.85 ticks  (550.97 ticks/sec)

CPLEX> Incumbent solution written to file 'C:\Users\wenmi\Desktop\competitiveMPEC\logs\tmpbd0onspl.cplex.sol'.
CPLEX> Exporting results... 
